c SAT Generator for power-law distributed variable frequencies
c -g u -v 20 -c 91 -k 3 -p 2.750000 -b 3.200000 -f /home/schmidt/Devel/ni-kop-sat/data/ensemble/ruf20-91/ruf20-91-120 -u 1 -U 1 -s 4227721594
p cnf 20 91
2 6 20 0
-5 -9 10 0
10 -18 -19 0
4 -14 20 0
-3 -6 -19 0
9 -17 19 0
-1 -9 14 0
-6 -12 -15 0
9 -12 -18 0
6 -15 -19 0
7 -12 19 0
-6 12 -19 0
-1 5 20 0
-3 9 -19 0
-3 8 20 0
-14 19 -20 0
-10 -19 -20 0
-2 -6 20 0
-9 16 18 0
-10 -12 -14 0
-1 10 19 0
3 5 13 0
6 7 -11 0
-8 -14 15 0
9 -10 -14 0
-1 -3 5 0
12 -15 -17 0
11 18 19 0
6 9 -12 0
-6 15 -16 0
-11 -18 20 0
-9 -12 -16 0
-4 16 -20 0
-5 -13 20 0
14 19 20 0
3 -18 -20 0
-1 16 -18 0
-6 7 -14 0
-2 3 -4 0
-12 -15 18 0
2 -10 17 0
2 8 -9 0
2 4 -18 0
-4 -7 14 0
2 17 19 0
11 12 17 0
-8 -11 12 0
-5 -13 -15 0
1 9 -20 0
3 -14 17 0
1 -15 -20 0
-2 -7 -17 0
12 16 -20 0
9 -14 -19 0
9 -15 16 0
-4 15 -20 0
3 14 20 0
-6 10 20 0
4 10 -12 0
8 -15 17 0
15 -16 17 0
2 -4 7 0
-4 -6 9 0
-6 -15 17 0
-5 -6 -7 0
-4 14 -17 0
4 5 11 0
1 -14 16 0
-3 15 -19 0
3 -16 -19 0
-14 15 18 0
8 -9 -18 0
5 -16 20 0
-2 -5 13 0
1 13 16 0
2 8 -16 0
2 -10 -18 0
-9 -13 19 0
13 -16 20 0
-7 9 13 0
8 -17 20 0
4 5 12 0
1 10 -13 0
4 11 -17 0
7 -8 11 0
3 -5 14 0
-4 18 19 0
-1 6 19 0
1 -11 -16 0
-10 16 -17 0
-4 -12 -13 0
